c This is a random SAT instance with 10 variables and 20 clauses
p cnf 10 20
-8 -2 -6 -9 7 4 10 -10 -5 0
6 8 3 -1 2 -5 -4 0
4 2 -6 1 7 0
-7 -1 -2 8 1 9 -5 -3 -9 0
-5 8 -1 6 -8 10 -3 5 1 3 0
3 -3 5 -9 1 10 -4 9 0
7 0
-2 1 0
-4 9 -1 -6 4 -7 5 -8 0
3 -3 10 -5 9 6 -8 5 0
10 8 4 -6 5 -7 0
-7 10 -8 3 0
-10 8 -6 6 -5 9 -1 0
6 -10 -7 -4 -6 0
-3 -1 -5 -4 6 -9 0
3 7 9 -4 -3 0
-1 -7 10 8 6 -10 -8 1 0
1 7 6 -1 -9 10 8 -4 0
0
4 -6 0